
set I:= 2	3	4 5 6	7 	8	9	10	11 12 13	14	15 16	17	18	19	20 21 22 
23 24 25 26 27 28 29 30 31 32 33 34 35 36 37 38 39 40 41 42 43 44 45 46 47 48 49 50 51
52 53 54 55 56 57 58 59 60 61 62 63 64 65 66 67 68 69 70 71 72 73 74 75 76;

set Nodos:= 1 2	3	4 5 6	7 	8	9	10	11 12 13	14	15 16	17	18	19	20 21 22
23 24 25 26 27 28 29 30 31 32 33 34 35 36 37 38 39 40 41 42 43 44 45 46 47 48 49 50 51
52 53 54 55 56 57 58 59 60 61 62 63 64 65 66 67 68 69 70 71 72 73 74 75 76;

set K:= 1 2 3;
set R:= A B C;
set T:= A B C;


param: xcoord	ycoord :=
1	0	0
2	-7	9
3	-7	8
4	-15	16
5	-2	13
6	0	3
7	-9	6
8	2	5
9	-13	9
10	-15	10
11	-14	2
12	1	0
13	-40	24
14	-54	-15
15	-43	10
16	-73	-2
17	-76	4
18	-45	31
19	-29	36
20	-78	11
21	-31	25
22	-67	17
23	-31	4
24	-51	10
25	-30	-9
26	-51	24
27	-80	-10
28	-34	4
29	-45	25
30	73	32
31	78	59
32	58	53
33	57	55
34	20	85
35	-12	81
36	-8	86
37	12	33
38	19	86
39	-11	44
40	-2	67
41	25	76
42	-29	44
43	4	80
44	-2	84
45	-8	54
46	-16	34
47	-14	80
48	-17	32
49	19	39
50	-20	82
51	17	42
52	-4	5
53	-20	25
54	-12	14
55	-11	11
56	-12	4
57	-1	21
58	-1	1
59	-9	21
60	9	3
61	5	14
62	-9	27
63	-20	11
64	0	30
65	-12	15
66	-3	17
67	-58	-60
68	-71	-58
69	-32	-34
70	-59	-37
71	-48	-19
72	-71	-49
73	22	-4
74	13	-10
75	22	-17
76	13	12


;

param Q:=
1   15000
2   20000
3   25000
;

param P:=
A   5000
B   10000
C   15000
;


param alfa:=
A   1
B    .70
C    .30
;

param q:  A   B   C:=
1	0	0	0
2	470	0	0
3	0	60	0
4	0	0	85
5	3095	0	0
6	0	305	0
7	0	0	15
8	20	0	0
9	0	65	0
10	0	0	220
11	60	0	0
12	0	175	0
13	0	0	570
14	145	0	0
15	0	380	0
16	0	0	530
17	785	0	0
18	0	215	0
19	0	0	20
20	190	0	0
21	0	1060	0
22	0	0	210
23	50	0	0
24	0	95	0
25	0	0	4280
26	65	0	0
27	0	335	0
28	0	0	720
29	1550	0	0
30	0	425	0
31	0	0	5305
32	1720	0	0
33	0	110	0
34	0	0	75
35	1095	0	0
36	0	220	0
37	0	0	1850
38	370	0	0
39	0	410	0
40	0	0	15
41	195	0	0
42	0	270	0
43	0	0	110
44	855	0	0
45	0	325	0
46	0	0	2025
47	95	0	0
48	0	35	0
49	0	0	2930
50	75	0	0
51	0	745	0
52	0	0	705
53	45	0	0
54	0	1305	0
55	0	0	20
56	25	0	0
57	0	105	0
58	0	0	125
59	430	0	0
60	0	430	0
61	0	0	620
62	615	0	0
63	0	55	0
64	0	0	205
65	1395	0	0
66	0	745	0
67	0	0	45
68	325	0	0
69	0	775	0
70	0	0	30
71	415	0	0
72	0	55	0
73	0	0	3675
74	20	0	0
75	0	280	0
76	0	0	130

;

param a:  A   B   C:=
1	0	0	0
2	1	0	0
3	0	1	0
4	0	0	1
5	1	0	0
6	0	1	0
7	0	0	1
8	1	0	0
9	0	1	0
10	0	0	1
11	1	0	0
12	0	1	0
13	0	0	1
14	1	0	0
15	0	1	0
16	0	0	1
17	1	0	0
18	0	1	0
19	0	0	1
20	1	0	0
21	0	1	0
22	0	0	1
23	1	0	0
24	0	1	0
25	0	0	1
26	1	0	0
27	0	1	0
28	0	0	1
29	1	0	0
30	0	1	0
31	0	0	1
32	1	0	0
33	0	1	0
34	0	0	1
35	1	0	0
36	0	1	0
37	0	0	1
38	1	0	0
39	0	1	0
40	0	0	1
41	1	0	0
42	0	1	0
43	0	0	1
44	1	0	0
45	0	1	0
46	0	0	1
47	1	0	0
48	0	1	0
49	0	0	1
50	1	0	0
51	0	1	0
52	0	0	1
53	1	0	0
54	0	1	0
55	0	0	1
56	1	0	0
57	0	1	0
58	0	0	1
59	1	0	0
60	0	1	0
61	0	0	1
62	1	0	0
63	0	1	0
64	0	0	1
65	1	0	0
66	0	1	0
67	0	0	1
68	1	0	0
69	0	1	0
70	0	0	1
71	1	0	0
72	0	1	0
73	0	0	1
74	1	0	0
75	0	1	0
76	0	0	1

;

param qu :=
1	0
2	470
3	60
4	85
5	3095
6	305
7	15
8	20
9	65
10	220
11	60
12	175
13	570
14	145
15	380
16	530
17	785
18	215
19	20
20	190
21	1060
22	210
23	50
24	95
25	4280
26	65
27	335
28	720
29	1550
30	425
31	5305
32	1720
33	110
34	75
35	1095
36	220
37	1850
38	370
39	410
40	15
41	195
42	270
43	110
44	855
45	325
46	2025
47	95
48	35
49	2930
50	75
51	745
52	705
53	45
54	1305
55	20
56	25
57	105
58	125
59	430
60	430
61	620
62	615
63	55
64	205
65	1395
66	745
67	45
68	325
69	775
70	30
71	415
72	55
73	3675
74	20
75	280
76	130

;

set IT:=
(	2	,	A	)
(	3	,	B	)
(	4	,	C	)
(	5	,	A	)
(	6	,	B	)
(	7	,	C	)
(	8	,	A	)
(	9	,	B	)
(	10	,	C	)
(	11	,	A	)
(	12	,	B	)
(	13	,	C	)
(	14	,	A	)
(	15	,	B	)
(	16	,	C	)
(	17	,	A	)
(	18	,	B	)
(	19	,	C	)
(	20	,	A	)
(	21	,	B	)
(	22	,	C	)
(	23	,	A	)
(	24	,	B	)
(	25	,	C	)
(	26	,	A	)
(	27	,	B	)
(	28	,	C	)
(	29	,	A	)
(	30	,	B	)
(	31	,	C	)
(	32	,	A	)
(	33	,	B	)
(	34	,	C	)
(	35	,	A	)
(	36	,	B	)
(	37	,	C	)
(	38	,	A	)
(	39	,	B	)
(	40	,	C	)
(	41	,	A	)
(	42	,	B	)
(	43	,	C	)
(	44	,	A	)
(	45	,	B	)
(	46	,	C	)
(	47	,	A	)
(	48	,	B	)
(	49	,	C	)
(	50	,	A	)
(	51	,	B	)
(	52	,	C	)
(	53	,	A	)
(	54	,	B	)
(	55	,	C	)
(	56	,	A	)
(	57	,	B	)
(	58	,	C	)
(	59	,	A	)
(	60	,	B	)
(	61	,	C	)
(	62	,	A	)
(	63	,	B	)
(	64	,	C	)
(	65	,	A	)
(	66	,	B	)
(	67	,	C	)
(	68	,	A	)
(	69	,	B	)
(	70	,	C	)
(	71	,	A	)
(	72	,	B	)
(	73	,	C	)
(	74	,	A	)
(	75	,	B	)
(	76	,	C	)

;